p cnf 336 1282
-223 -224 0
-223 -225 0
-224 -225 0
-226 -227 0
-1 223 0
-1 226 0
-2 223 0
-2 227 0
-3 224 0
-3 226 0
-4 224 0
-4 227 0
-5 225 0
-5 226 0
-6 225 0
-6 227 0
-1 37 0
-1 7 0
-2 38 0
-2 8 0
-3 39 0
-3 9 0
-4 40 0
-4 10 0
-5 41 0
-5 11 0
-6 42 0
-6 12 0
7 0
-8 0
-9 0
-10 0
-11 0
-12 0
1 13 43 0
-1 -13 0
-1 -43 0
-13 -43 0
16 0
-13 0
-14 0
-15 0
-17 0
-18 0
10 22 52 0
-10 -22 0
-10 -52 0
-22 -52 0
24 0
-19 0
-20 0
-21 0
-22 0
-23 0
18 30 60 0
-18 -30 0
-18 -60 0
-30 -60 0
-243 -244 0
-243 -245 0
-244 -245 0
-246 -247 0
-25 243 0
-25 246 0
-26 243 0
-26 247 0
-27 244 0
-27 246 0
-28 244 0
-28 247 0
-29 245 0
-29 246 0
-30 245 0
-30 247 0
-25 19 31 0
-25 19 61 0
-25 31 61 0
-26 20 32 0
-26 20 62 0
-26 32 62 0
-27 21 33 0
-27 21 63 0
-27 33 63 0
-28 22 34 0
-28 22 64 0
-28 34 64 0
-29 23 35 0
-29 23 65 0
-29 35 65 0
-30 24 36 0
-30 24 66 0
-30 36 66 0
-25 -19 -31 -61 0
-26 -20 -32 -62 0
-27 -21 -33 -63 0
-28 -22 -34 -64 0
-29 -23 -35 -65 0
-30 -24 -36 -66 0
-248 -249 0
-248 -250 0
-249 -250 0
-251 -252 0
-31 248 0
-31 251 0
-32 248 0
-32 252 0
-33 249 0
-33 251 0
-34 249 0
-34 252 0
-35 250 0
-35 251 0
-36 250 0
-36 252 0
-31 67 0
-31 25 0
-32 68 0
-32 26 0
-33 69 0
-33 27 0
-34 70 0
-34 28 0
-35 71 0
-35 29 0
-36 72 0
-36 30 0
-253 -254 0
-253 -255 0
-254 -255 0
-256 -257 0
-37 253 0
-37 256 0
-38 253 0
-38 257 0
-39 254 0
-39 256 0
-40 254 0
-40 257 0
-41 255 0
-41 256 0
-42 255 0
-42 257 0
-37 73 43 0
-37 73 1 0
-37 43 1 0
-38 74 44 0
-38 74 2 0
-38 44 2 0
-39 75 45 0
-39 75 3 0
-39 45 3 0
-40 76 46 0
-40 76 4 0
-40 46 4 0
-41 77 47 0
-41 77 5 0
-41 47 5 0
-42 78 48 0
-42 78 6 0
-42 48 6 0
-37 -73 -43 -1 0
-38 -74 -44 -2 0
-39 -75 -45 -3 0
-40 -76 -46 -4 0
-41 -77 -47 -5 0
-42 -78 -48 -6 0
45 0
-43 0
-44 0
-46 0
-47 0
-48 0
81 51 9 39 0
-81 -51 0
-81 -9 0
-81 -39 0
-51 -9 0
-51 -39 0
-9 -39 0
-263 -264 0
-263 -265 0
-264 -265 0
-266 -267 0
-49 263 0
-49 266 0
-50 263 0
-50 267 0
-51 264 0
-51 266 0
-52 264 0
-52 267 0
-53 265 0
-53 266 0
-54 265 0
-54 267 0
-49 85 55 13 0
-49 85 55 43 0
-49 85 13 43 0
-49 55 13 43 0
-50 86 56 14 0
-50 86 56 44 0
-50 86 14 44 0
-50 56 14 44 0
-51 87 57 15 0
-51 87 57 45 0
-51 87 15 45 0
-51 57 15 45 0
-52 88 58 16 0
-52 88 58 46 0
-52 88 16 46 0
-52 58 16 46 0
-53 89 59 17 0
-53 89 59 47 0
-53 89 17 47 0
-53 59 17 47 0
-54 90 60 18 0
-54 90 60 48 0
-54 90 18 48 0
-54 60 18 48 0
-49 -85 -55 -13 0
-49 -85 -55 -43 0
-49 -85 -13 -43 0
-49 -55 -13 -43 0
-50 -86 -56 -14 0
-50 -86 -56 -44 0
-50 -86 -14 -44 0
-50 -56 -14 -44 0
-51 -87 -57 -15 0
-51 -87 -57 -45 0
-51 -87 -15 -45 0
-51 -57 -15 -45 0
-52 -88 -58 -16 0
-52 -88 -58 -46 0
-52 -88 -16 -46 0
-52 -58 -16 -46 0
-53 -89 -59 -17 0
-53 -89 -59 -47 0
-53 -89 -17 -47 0
-53 -59 -17 -47 0
-54 -90 -60 -18 0
-54 -90 -60 -48 0
-54 -90 -18 -48 0
-54 -60 -18 -48 0
59 0
-55 0
-56 0
-57 0
-58 0
-60 0
95 65 23 53 0
-95 -65 0
-95 -23 0
-95 -53 0
-65 -23 0
-65 -53 0
-23 -53 0
-273 -274 0
-273 -275 0
-274 -275 0
-276 -277 0
-61 273 0
-61 276 0
-62 273 0
-62 277 0
-63 274 0
-63 276 0
-64 274 0
-64 277 0
-65 275 0
-65 276 0
-66 275 0
-66 277 0
-61 97 67 25 0
-61 97 67 55 0
-61 97 25 55 0
-61 67 25 55 0
-62 98 68 26 0
-62 98 68 56 0
-62 98 26 56 0
-62 68 26 56 0
-63 99 69 27 0
-63 99 69 57 0
-63 99 27 57 0
-63 69 27 57 0
-64 100 70 28 0
-64 100 70 58 0
-64 100 28 58 0
-64 70 28 58 0
-65 101 71 29 0
-65 101 71 59 0
-65 101 29 59 0
-65 71 29 59 0
-66 102 72 30 0
-66 102 72 60 0
-66 102 30 60 0
-66 72 30 60 0
-61 -97 -67 -25 0
-61 -97 -67 -55 0
-61 -97 -25 -55 0
-61 -67 -25 -55 0
-62 -98 -68 -26 0
-62 -98 -68 -56 0
-62 -98 -26 -56 0
-62 -68 -26 -56 0
-63 -99 -69 -27 0
-63 -99 -69 -57 0
-63 -99 -27 -57 0
-63 -69 -27 -57 0
-64 -100 -70 -28 0
-64 -100 -70 -58 0
-64 -100 -28 -58 0
-64 -70 -28 -58 0
-65 -101 -71 -29 0
-65 -101 -71 -59 0
-65 -101 -29 -59 0
-65 -71 -29 -59 0
-66 -102 -72 -30 0
-66 -102 -72 -60 0
-66 -102 -30 -60 0
-66 -72 -30 -60 0
-278 -279 0
-278 -280 0
-279 -280 0
-281 -282 0
-67 278 0
-67 281 0
-68 278 0
-68 282 0
-69 279 0
-69 281 0
-70 279 0
-70 282 0
-71 280 0
-71 281 0
-72 280 0
-72 282 0
-67 103 61 0
-67 103 31 0
-67 61 31 0
-68 104 62 0
-68 104 32 0
-68 62 32 0
-69 105 63 0
-69 105 33 0
-69 63 33 0
-70 106 64 0
-70 106 34 0
-70 64 34 0
-71 107 65 0
-71 107 35 0
-71 65 35 0
-72 108 66 0
-72 108 36 0
-72 66 36 0
-67 -103 -61 -31 0
-68 -104 -62 -32 0
-69 -105 -63 -33 0
-70 -106 -64 -34 0
-71 -107 -65 -35 0
-72 -108 -66 -36 0
-283 -284 0
-283 -285 0
-284 -285 0
-286 -287 0
-73 283 0
-73 286 0
-74 283 0
-74 287 0
-75 284 0
-75 286 0
-76 284 0
-76 287 0
-77 285 0
-77 286 0
-78 285 0
-78 287 0
-73 109 79 0
-73 109 37 0
-73 79 37 0
-74 110 80 0
-74 110 38 0
-74 80 38 0
-75 111 81 0
-75 111 39 0
-75 81 39 0
-76 112 82 0
-76 112 40 0
-76 82 40 0
-77 113 83 0
-77 113 41 0
-77 83 41 0
-78 114 84 0
-78 114 42 0
-78 84 42 0
-73 -109 -79 -37 0
-74 -110 -80 -38 0
-75 -111 -81 -39 0
-76 -112 -82 -40 0
-77 -113 -83 -41 0
-78 -114 -84 -42 0
-288 -289 0
-288 -290 0
-289 -290 0
-291 -292 0
-79 288 0
-79 291 0
-80 288 0
-80 292 0
-81 289 0
-81 291 0
-82 289 0
-82 292 0
-83 290 0
-83 291 0
-84 290 0
-84 292 0
-79 115 85 43 0
-79 115 85 73 0
-79 115 43 73 0
-79 85 43 73 0
-80 116 86 44 0
-80 116 86 74 0
-80 116 44 74 0
-80 86 44 74 0
-81 117 87 45 0
-81 117 87 75 0
-81 117 45 75 0
-81 87 45 75 0
-82 118 88 46 0
-82 118 88 76 0
-82 118 46 76 0
-82 88 46 76 0
-83 119 89 47 0
-83 119 89 77 0
-83 119 47 77 0
-83 89 47 77 0
-84 120 90 48 0
-84 120 90 78 0
-84 120 48 78 0
-84 90 48 78 0
-79 -115 -85 -43 0
-79 -115 -85 -73 0
-79 -115 -43 -73 0
-79 -85 -43 -73 0
-80 -116 -86 -44 0
-80 -116 -86 -74 0
-80 -116 -44 -74 0
-80 -86 -44 -74 0
-81 -117 -87 -45 0
-81 -117 -87 -75 0
-81 -117 -45 -75 0
-81 -87 -45 -75 0
-82 -118 -88 -46 0
-82 -118 -88 -76 0
-82 -118 -46 -76 0
-82 -88 -46 -76 0
-83 -119 -89 -47 0
-83 -119 -89 -77 0
-83 -119 -47 -77 0
-83 -89 -47 -77 0
-84 -120 -90 -48 0
-84 -120 -90 -78 0
-84 -120 -48 -78 0
-84 -90 -48 -78 0
-293 -294 0
-293 -295 0
-294 -295 0
-296 -297 0
-85 293 0
-85 296 0
-86 293 0
-86 297 0
-87 294 0
-87 296 0
-88 294 0
-88 297 0
-89 295 0
-89 296 0
-90 295 0
-90 297 0
-85 121 91 49 0
-85 121 91 79 0
-85 121 49 79 0
-85 91 49 79 0
-86 122 92 50 0
-86 122 92 80 0
-86 122 50 80 0
-86 92 50 80 0
-87 123 93 51 0
-87 123 93 81 0
-87 123 51 81 0
-87 93 51 81 0
-88 124 94 52 0
-88 124 94 82 0
-88 124 52 82 0
-88 94 52 82 0
-89 125 95 53 0
-89 125 95 83 0
-89 125 53 83 0
-89 95 53 83 0
-90 126 96 54 0
-90 126 96 84 0
-90 126 54 84 0
-90 96 54 84 0
-85 -121 -91 -49 0
-85 -121 -91 -79 0
-85 -121 -49 -79 0
-85 -91 -49 -79 0
-86 -122 -92 -50 0
-86 -122 -92 -80 0
-86 -122 -50 -80 0
-86 -92 -50 -80 0
-87 -123 -93 -51 0
-87 -123 -93 -81 0
-87 -123 -51 -81 0
-87 -93 -51 -81 0
-88 -124 -94 -52 0
-88 -124 -94 -82 0
-88 -124 -52 -82 0
-88 -94 -52 -82 0
-89 -125 -95 -53 0
-89 -125 -95 -83 0
-89 -125 -53 -83 0
-89 -95 -53 -83 0
-90 -126 -96 -54 0
-90 -126 -96 -84 0
-90 -126 -54 -84 0
-90 -96 -54 -84 0
-298 -299 0
-298 -300 0
-299 -300 0
-301 -302 0
-91 298 0
-91 301 0
-92 298 0
-92 302 0
-93 299 0
-93 301 0
-94 299 0
-94 302 0
-95 300 0
-95 301 0
-96 300 0
-96 302 0
-91 127 97 55 0
-91 127 97 85 0
-91 127 55 85 0
-91 97 55 85 0
-92 128 98 56 0
-92 128 98 86 0
-92 128 56 86 0
-92 98 56 86 0
-93 129 99 57 0
-93 129 99 87 0
-93 129 57 87 0
-93 99 57 87 0
-94 130 100 58 0
-94 130 100 88 0
-94 130 58 88 0
-94 100 58 88 0
-95 131 101 59 0
-95 131 101 89 0
-95 131 59 89 0
-95 101 59 89 0
-96 132 102 60 0
-96 132 102 90 0
-96 132 60 90 0
-96 102 60 90 0
-91 -127 -97 -55 0
-91 -127 -97 -85 0
-91 -127 -55 -85 0
-91 -97 -55 -85 0
-92 -128 -98 -56 0
-92 -128 -98 -86 0
-92 -128 -56 -86 0
-92 -98 -56 -86 0
-93 -129 -99 -57 0
-93 -129 -99 -87 0
-93 -129 -57 -87 0
-93 -99 -57 -87 0
-94 -130 -100 -58 0
-94 -130 -100 -88 0
-94 -130 -58 -88 0
-94 -100 -58 -88 0
-95 -131 -101 -59 0
-95 -131 -101 -89 0
-95 -131 -59 -89 0
-95 -101 -59 -89 0
-96 -132 -102 -60 0
-96 -132 -102 -90 0
-96 -132 -60 -90 0
-96 -102 -60 -90 0
101 0
-97 0
-98 0
-99 0
-100 0
-102 0
137 107 65 95 0
-137 -107 0
-137 -65 0
-137 -95 0
-107 -65 0
-107 -95 0
-65 -95 0
108 0
-103 0
-104 0
-105 0
-106 0
-107 0
144 102 72 0
-144 -102 0
-144 -72 0
-102 -72 0
-313 -314 0
-313 -315 0
-314 -315 0
-316 -317 0
-109 313 0
-109 316 0
-110 313 0
-110 317 0
-111 314 0
-111 316 0
-112 314 0
-112 317 0
-113 315 0
-113 316 0
-114 315 0
-114 317 0
-109 145 115 0
-109 145 73 0
-109 115 73 0
-110 146 116 0
-110 146 74 0
-110 116 74 0
-111 147 117 0
-111 147 75 0
-111 117 75 0
-112 148 118 0
-112 148 76 0
-112 118 76 0
-113 149 119 0
-113 149 77 0
-113 119 77 0
-114 150 120 0
-114 150 78 0
-114 120 78 0
-109 -145 -115 -73 0
-110 -146 -116 -74 0
-111 -147 -117 -75 0
-112 -148 -118 -76 0
-113 -149 -119 -77 0
-114 -150 -120 -78 0
-318 -319 0
-318 -320 0
-319 -320 0
-321 -322 0
-115 318 0
-115 321 0
-116 318 0
-116 322 0
-117 319 0
-117 321 0
-118 319 0
-118 322 0
-119 320 0
-119 321 0
-120 320 0
-120 322 0
-115 151 121 79 0
-115 151 121 109 0
-115 151 79 109 0
-115 121 79 109 0
-116 152 122 80 0
-116 152 122 110 0
-116 152 80 110 0
-116 122 80 110 0
-117 153 123 81 0
-117 153 123 111 0
-117 153 81 111 0
-117 123 81 111 0
-118 154 124 82 0
-118 154 124 112 0
-118 154 82 112 0
-118 124 82 112 0
-119 155 125 83 0
-119 155 125 113 0
-119 155 83 113 0
-119 125 83 113 0
-120 156 126 84 0
-120 156 126 114 0
-120 156 84 114 0
-120 126 84 114 0
-115 -151 -121 -79 0
-115 -151 -121 -109 0
-115 -151 -79 -109 0
-115 -121 -79 -109 0
-116 -152 -122 -80 0
-116 -152 -122 -110 0
-116 -152 -80 -110 0
-116 -122 -80 -110 0
-117 -153 -123 -81 0
-117 -153 -123 -111 0
-117 -153 -81 -111 0
-117 -123 -81 -111 0
-118 -154 -124 -82 0
-118 -154 -124 -112 0
-118 -154 -82 -112 0
-118 -124 -82 -112 0
-119 -155 -125 -83 0
-119 -155 -125 -113 0
-119 -155 -83 -113 0
-119 -125 -83 -113 0
-120 -156 -126 -84 0
-120 -156 -126 -114 0
-120 -156 -84 -114 0
-120 -126 -84 -114 0
123 0
-121 0
-122 0
-124 0
-125 0
-126 0
159 129 87 117 0
-159 -129 0
-159 -87 0
-159 -117 0
-129 -87 0
-129 -117 0
-87 -117 0
-328 -329 0
-328 -330 0
-329 -330 0
-331 -332 0
-127 328 0
-127 331 0
-128 328 0
-128 332 0
-129 329 0
-129 331 0
-130 329 0
-130 332 0
-131 330 0
-131 331 0
-132 330 0
-132 332 0
-127 163 133 91 0
-127 163 133 121 0
-127 163 91 121 0
-127 133 91 121 0
-128 164 134 92 0
-128 164 134 122 0
-128 164 92 122 0
-128 134 92 122 0
-129 165 135 93 0
-129 165 135 123 0
-129 165 93 123 0
-129 135 93 123 0
-130 166 136 94 0
-130 166 136 124 0
-130 166 94 124 0
-130 136 94 124 0
-131 167 137 95 0
-131 167 137 125 0
-131 167 95 125 0
-131 137 95 125 0
-132 168 138 96 0
-132 168 138 126 0
-132 168 96 126 0
-132 138 96 126 0
-127 -163 -133 -91 0
-127 -163 -133 -121 0
-127 -163 -91 -121 0
-127 -133 -91 -121 0
-128 -164 -134 -92 0
-128 -164 -134 -122 0
-128 -164 -92 -122 0
-128 -134 -92 -122 0
-129 -165 -135 -93 0
-129 -165 -135 -123 0
-129 -165 -93 -123 0
-129 -135 -93 -123 0
-130 -166 -136 -94 0
-130 -166 -136 -124 0
-130 -166 -94 -124 0
-130 -136 -94 -124 0
-131 -167 -137 -95 0
-131 -167 -137 -125 0
-131 -167 -95 -125 0
-131 -137 -95 -125 0
-132 -168 -138 -96 0
-132 -168 -138 -126 0
-132 -168 -96 -126 0
-132 -138 -96 -126 0
-333 -334 0
-333 -335 0
-334 -335 0
-336 -337 0
-133 333 0
-133 336 0
-134 333 0
-134 337 0
-135 334 0
-135 336 0
-136 334 0
-136 337 0
-137 335 0
-137 336 0
-138 335 0
-138 337 0
-133 169 139 97 0
-133 169 139 127 0
-133 169 97 127 0
-133 139 97 127 0
-134 170 140 98 0
-134 170 140 128 0
-134 170 98 128 0
-134 140 98 128 0
-135 171 141 99 0
-135 171 141 129 0
-135 171 99 129 0
-135 141 99 129 0
-136 172 142 100 0
-136 172 142 130 0
-136 172 100 130 0
-136 142 100 130 0
-137 173 143 101 0
-137 173 143 131 0
-137 173 101 131 0
-137 143 101 131 0
-138 174 144 102 0
-138 174 144 132 0
-138 174 102 132 0
-138 144 102 132 0
-133 -169 -139 -97 0
-133 -169 -139 -127 0
-133 -169 -97 -127 0
-133 -139 -97 -127 0
-134 -170 -140 -98 0
-134 -170 -140 -128 0
-134 -170 -98 -128 0
-134 -140 -98 -128 0
-135 -171 -141 -99 0
-135 -171 -141 -129 0
-135 -171 -99 -129 0
-135 -141 -99 -129 0
-136 -172 -142 -100 0
-136 -172 -142 -130 0
-136 -172 -100 -130 0
-136 -142 -100 -130 0
-137 -173 -143 -101 0
-137 -173 -143 -131 0
-137 -173 -101 -131 0
-137 -143 -101 -131 0
-138 -174 -144 -102 0
-138 -174 -144 -132 0
-138 -174 -102 -132 0
-138 -144 -102 -132 0
139 0
-140 0
-141 0
-142 0
-143 0
-144 0
175 133 103 0
-175 -133 0
-175 -103 0
-133 -103 0
-343 -344 0
-343 -345 0
-344 -345 0
-346 -347 0
-145 343 0
-145 346 0
-146 343 0
-146 347 0
-147 344 0
-147 346 0
-148 344 0
-148 347 0
-149 345 0
-149 346 0
-150 345 0
-150 347 0
-145 181 151 0
-145 181 109 0
-145 151 109 0
-146 182 152 0
-146 182 110 0
-146 152 110 0
-147 183 153 0
-147 183 111 0
-147 153 111 0
-148 184 154 0
-148 184 112 0
-148 154 112 0
-149 185 155 0
-149 185 113 0
-149 155 113 0
-150 186 156 0
-150 186 114 0
-150 156 114 0
-145 -181 -151 -109 0
-146 -182 -152 -110 0
-147 -183 -153 -111 0
-148 -184 -154 -112 0
-149 -185 -155 -113 0
-150 -186 -156 -114 0
152 0
-151 0
-153 0
-154 0
-155 0
-156 0
188 158 116 146 0
-188 -158 0
-188 -116 0
-188 -146 0
-158 -116 0
-158 -146 0
-116 -146 0
-353 -354 0
-353 -355 0
-354 -355 0
-356 -357 0
-157 353 0
-157 356 0
-158 353 0
-158 357 0
-159 354 0
-159 356 0
-160 354 0
-160 357 0
-161 355 0
-161 356 0
-162 355 0
-162 357 0
-157 193 163 121 0
-157 193 163 151 0
-157 193 121 151 0
-157 163 121 151 0
-158 194 164 122 0
-158 194 164 152 0
-158 194 122 152 0
-158 164 122 152 0
-159 195 165 123 0
-159 195 165 153 0
-159 195 123 153 0
-159 165 123 153 0
-160 196 166 124 0
-160 196 166 154 0
-160 196 124 154 0
-160 166 124 154 0
-161 197 167 125 0
-161 197 167 155 0
-161 197 125 155 0
-161 167 125 155 0
-162 198 168 126 0
-162 198 168 156 0
-162 198 126 156 0
-162 168 126 156 0
-157 -193 -163 -121 0
-157 -193 -163 -151 0
-157 -193 -121 -151 0
-157 -163 -121 -151 0
-158 -194 -164 -122 0
-158 -194 -164 -152 0
-158 -194 -122 -152 0
-158 -164 -122 -152 0
-159 -195 -165 -123 0
-159 -195 -165 -153 0
-159 -195 -123 -153 0
-159 -165 -123 -153 0
-160 -196 -166 -124 0
-160 -196 -166 -154 0
-160 -196 -124 -154 0
-160 -166 -124 -154 0
-161 -197 -167 -125 0
-161 -197 -167 -155 0
-161 -197 -125 -155 0
-161 -167 -125 -155 0
-162 -198 -168 -126 0
-162 -198 -168 -156 0
-162 -198 -126 -156 0
-162 -168 -126 -156 0
164 0
-163 0
-165 0
-166 0
-167 0
-168 0
200 170 128 158 0
-200 -170 0
-200 -128 0
-200 -158 0
-170 -128 0
-170 -158 0
-128 -158 0
172 0
-169 0
-170 0
-171 0
-173 0
-174 0
208 178 136 166 0
-208 -178 0
-208 -136 0
-208 -166 0
-178 -136 0
-178 -166 0
-136 -166 0
-368 -369 0
-368 -370 0
-369 -370 0
-371 -372 0
-175 368 0
-175 371 0
-176 368 0
-176 372 0
-177 369 0
-177 371 0
-178 369 0
-178 372 0
-179 370 0
-179 371 0
-180 370 0
-180 372 0
-175 211 169 0
-175 211 139 0
-175 169 139 0
-176 212 170 0
-176 212 140 0
-176 170 140 0
-177 213 171 0
-177 213 141 0
-177 171 141 0
-178 214 172 0
-178 214 142 0
-178 172 142 0
-179 215 173 0
-179 215 143 0
-179 173 143 0
-180 216 174 0
-180 216 144 0
-180 174 144 0
-175 -211 -169 -139 0
-176 -212 -170 -140 0
-177 -213 -171 -141 0
-178 -214 -172 -142 0
-179 -215 -173 -143 0
-180 -216 -174 -144 0
-373 -374 0
-373 -375 0
-374 -375 0
-376 -377 0
-181 373 0
-181 376 0
-182 373 0
-182 377 0
-183 374 0
-183 376 0
-184 374 0
-184 377 0
-185 375 0
-185 376 0
-186 375 0
-186 377 0
-181 145 0
-181 187 0
-182 146 0
-182 188 0
-183 147 0
-183 189 0
-184 148 0
-184 190 0
-185 149 0
-185 191 0
-186 150 0
-186 192 0
-378 -379 0
-378 -380 0
-379 -380 0
-381 -382 0
-187 378 0
-187 381 0
-188 378 0
-188 382 0
-189 379 0
-189 381 0
-190 379 0
-190 382 0
-191 380 0
-191 381 0
-192 380 0
-192 382 0
-187 151 193 0
-187 151 181 0
-187 193 181 0
-188 152 194 0
-188 152 182 0
-188 194 182 0
-189 153 195 0
-189 153 183 0
-189 195 183 0
-190 154 196 0
-190 154 184 0
-190 196 184 0
-191 155 197 0
-191 155 185 0
-191 197 185 0
-192 156 198 0
-192 156 186 0
-192 198 186 0
-187 -151 -193 -181 0
-188 -152 -194 -182 0
-189 -153 -195 -183 0
-190 -154 -196 -184 0
-191 -155 -197 -185 0
-192 -156 -198 -186 0
-383 -384 0
-383 -385 0
-384 -385 0
-386 -387 0
-193 383 0
-193 386 0
-194 383 0
-194 387 0
-195 384 0
-195 386 0
-196 384 0
-196 387 0
-197 385 0
-197 386 0
-198 385 0
-198 387 0
-193 157 199 0
-193 157 187 0
-193 199 187 0
-194 158 200 0
-194 158 188 0
-194 200 188 0
-195 159 201 0
-195 159 189 0
-195 201 189 0
-196 160 202 0
-196 160 190 0
-196 202 190 0
-197 161 203 0
-197 161 191 0
-197 203 191 0
-198 162 204 0
-198 162 192 0
-198 204 192 0
-193 -157 -199 -187 0
-194 -158 -200 -188 0
-195 -159 -201 -189 0
-196 -160 -202 -190 0
-197 -161 -203 -191 0
-198 -162 -204 -192 0
-388 -389 0
-388 -390 0
-389 -390 0
-391 -392 0
-199 388 0
-199 391 0
-200 388 0
-200 392 0
-201 389 0
-201 391 0
-202 389 0
-202 392 0
-203 390 0
-203 391 0
-204 390 0
-204 392 0
-199 163 205 0
-199 163 193 0
-199 205 193 0
-200 164 206 0
-200 164 194 0
-200 206 194 0
-201 165 207 0
-201 165 195 0
-201 207 195 0
-202 166 208 0
-202 166 196 0
-202 208 196 0
-203 167 209 0
-203 167 197 0
-203 209 197 0
-204 168 210 0
-204 168 198 0
-204 210 198 0
-199 -163 -205 -193 0
-200 -164 -206 -194 0
-201 -165 -207 -195 0
-202 -166 -208 -196 0
-203 -167 -209 -197 0
-204 -168 -210 -198 0
-393 -394 0
-393 -395 0
-394 -395 0
-396 -397 0
-205 393 0
-205 396 0
-206 393 0
-206 397 0
-207 394 0
-207 396 0
-208 394 0
-208 397 0
-209 395 0
-209 396 0
-210 395 0
-210 397 0
-205 169 211 0
-205 169 199 0
-205 211 199 0
-206 170 212 0
-206 170 200 0
-206 212 200 0
-207 171 213 0
-207 171 201 0
-207 213 201 0
-208 172 214 0
-208 172 202 0
-208 214 202 0
-209 173 215 0
-209 173 203 0
-209 215 203 0
-210 174 216 0
-210 174 204 0
-210 216 204 0
-205 -169 -211 -199 0
-206 -170 -212 -200 0
-207 -171 -213 -201 0
-208 -172 -214 -202 0
-209 -173 -215 -203 0
-210 -174 -216 -204 0
-398 -399 0
-398 -400 0
-399 -400 0
-401 -402 0
-211 398 0
-211 401 0
-212 398 0
-212 402 0
-213 399 0
-213 401 0
-214 399 0
-214 402 0
-215 400 0
-215 401 0
-216 400 0
-216 402 0
-211 175 0
-211 205 0
-212 176 0
-212 206 0
-213 177 0
-213 207 0
-214 178 0
-214 208 0
-215 179 0
-215 209 0
-216 180 0
-216 210 0
37 49 61 67 0
73 79 85 91 0
49 85 157 193 0
91 127 199 0
25 61 133 205 0
50 86 158 194 0
75 81 87 93 0
40 52 64 70 0
76 82 88 94 0
112 118 130 136 0
94 130 202 0
42 54 66 72 0
30 66 138 210 0